(declare-fun X0 () Int)
(declare-fun X1 () Int)
(declare-fun X2 () Int)
(declare-fun X3 () Int)
(declare-fun X4 () Int)
(assert (>= (- X1 X0) (- 8)))
(assert (>= (- X2 X1) 0))
(assert (>= (- X3 X2) 0))
(assert (<= (- X4 X3) 7))
(check-sat)
